(set-logic HORN)
(declare-fun state ((Array Int Int) Int (Array Int Int) Int Bool Bool Int Bool Int Bool Int Bool Int Int (Array Int Int) (Array Int Int) (Array Int Int) Int Bool Int Int (Array Int Int) (Array Int Int) (Array Int Int) Int Bool Int Bool Bool Int Bool Bool Bool Bool Int (Array Int Int) (Array Int Int) Int Bool (Array Int Int) (Array Int Int) Bool Bool Bool Int Bool Int Int (Array Int Int) (Array Int Int) (Array Int Int) Int (Array Int Int) (Array Int Int) Bool Bool Bool Int Int Bool Int (Array Int Int) (Array Int Int) (Array Int Int) Int Bool Int Int (Array Int Int) (Array Int Int) (Array Int Int) Int (Array Int Int) (Array Int Int) Int Bool Int Int Int Int Int Int Int Int Int (Array Int Int) (Array Int Int) Int (Array Int Int) Int) Bool)
(assert (forall ((|.y.7| (Array Int Int)) (|M3_0| Int) (|A_2| (Array Int Int)) (|U2_0| Int) (|.loc.8| Bool) (|.loc.9| Bool) (|X_0| Int) (|D1_0| Bool) (|V_0| Int) (|P_0| Bool) (|K1_0| Int) (|Q1_0| Bool) (|F1_0| Int) (|E1_0| Int) (|C1_0| (Array Int Int)) (|B1_0| (Array Int Int)) (|W_0| (Array Int Int)) (|X1_0| Int) (|D2_0| Bool) (|S1_0| Int) (|R1_0| Int) (|P1_0| (Array Int Int)) (|O1_0| (Array Int Int)) (|J1_0| (Array Int Int)) (|I2_0| Int) (|J_0| Bool) (|V1_0| Int) (|L_0| Bool) (|M_0| Bool) (|I1_0| Int) (|N_0| Bool) (|O_0| Bool) (|Z_0| Bool) (|Q_0| Bool) (|A1_0| Int) (|Y_0| (Array Int Int)) (|U_0| (Array Int Int)) (|N1_0| Int) (|M1_0| Bool) (|L1_0| (Array Int Int)) (|H1_0| (Array Int Int)) (|Z1_0| Bool) (|M2_0| Bool) (|K_0| Bool) (|K2_0| Int) (|Q2_0| Bool) (|F2_0| Int) (|E2_0| Int) (|C2_0| (Array Int Int)) (|B2_0| (Array Int Int)) (|W1_0| (Array Int Int)) (|A2_0| Int) (|Y1_0| (Array Int Int)) (|U1_0| (Array Int Int)) (|B3_0| Bool) (|E3_0| Bool) (|V2_0| Bool) (|K3_0| Int) (|G3_0| Int) (|F3_0| Bool) (|X2_0| Int) (|H3_0| (Array Int Int)) (|D3_0| (Array Int Int)) (|W2_0| (Array Int Int)) (|Z2_0| Int) (|J3_0| Bool) (|R2_0| Int) (|N2_0| Int) (|O2_0| (Array Int Int)) (|L2_0| (Array Int Int)) (|H2_0| (Array Int Int)) (|S2_0| Int) (|P2_0| (Array Int Int)) (|J2_0| (Array Int Int)) (|E_1| Int) (|R_0| Bool) (|T_0| Int) (|G1_0| Int) (|T1_0| Int) (|H_1| Int) (|G_1| Int) (|F_1| Int) (|G2_0| Int) (|I_0| Int) (|T2_0| Int) (|I3_0| (Array Int Int)) (|Y2_0| (Array Int Int)) (|L3_0| Int) (|A3_0| (Array Int Int)) (|C3_0| Int) (|.loc.14| Bool) (|.loc.15| Bool) (|.y.11| Int) (|.y.12| (Array Int Int)) (|.y.13| Int) (|.y.10| (Array Int Int)) (|.xtv.1| Int) (|.xtv.2| Bool) (|.xtv.3| Int) (|.xtv.4| Bool) (|.xtv.5| Int) (|.xtv.6| Bool) (|.xtv.7| Int) (|.xtv.8| Int) (|.xtv.9| (Array Int Int)) (|.xtv.10| (Array Int Int)) (|.xtv.11| (Array Int Int)) (|.xtv.12| Int) (|.xtv.13| Bool) (|.xtv.14| Int) (|.xtv.15| Int) (|.xtv.16| (Array Int Int)) (|.xtv.17| (Array Int Int)) (|.xtv.18| (Array Int Int)) (|.xtv.19| Int) (|.xtv.20| Bool) (|.xtv.21| Int) (|.xtv.22| Bool) (|.xtv.23| Bool) (|.xtv.24| Int) (|.xtv.25| Bool) (|.xtv.26| Bool) (|.xtv.27| Bool) (|.xtv.28| Bool) (|.xtv.29| Int) (|.xtv.30| (Array Int Int)) (|.xtv.31| (Array Int Int)) (|.xtv.32| Int) (|.xtv.33| Bool) (|.xtv.34| (Array Int Int)) (|.xtv.35| (Array Int Int)) (|.xtv.36| Bool) (|.xtv.37| Bool) (|.xtv.38| Bool) (|.xtv.39| Int) (|.xtv.40| Bool) (|.xtv.41| Int) (|.xtv.42| Int) (|.xtv.43| (Array Int Int)) (|.xtv.44| (Array Int Int)) (|.xtv.45| (Array Int Int)) (|.xtv.46| Int) (|.xtv.47| (Array Int Int)) (|.xtv.48| (Array Int Int)) (|.xtv.49| Bool) (|.xtv.50| Bool) (|.xtv.51| Bool) (|.xtv.52| Int) (|.xtv.53| Int) (|.xtv.54| Bool) (|.xtv.55| Int) (|.xtv.56| (Array Int Int)) (|.xtv.57| (Array Int Int)) (|.xtv.58| (Array Int Int)) (|.xtv.59| Int) (|.xtv.60| Bool) (|.xtv.61| Int) (|.xtv.62| Int) (|.xtv.63| (Array Int Int)) (|.xtv.64| (Array Int Int)) (|.xtv.65| (Array Int Int)) (|.xtv.66| Int) (|.xtv.67| (Array Int Int)) (|.xtv.68| (Array Int Int)) (|.xtv.69| Int) (|.xtv.70| Bool) (|.xtv.71| Int) (|.xtv.72| Int) (|.xtv.73| Int) (|.xtv.74| Int) (|.xtv.75| Int) (|.xtv.76| Int) (|.xtv.77| Int) (|.xtv.78| Int) (|.xtv.79| Int) (|.xtv.80| (Array Int Int)) (|.xtv.81| (Array Int Int)) (|.xtv.82| Int) (|.xtv.83| (Array Int Int)) (|.xtv.84| Int)) (=> (and (not .loc.9) (not .loc.8)) (state |.y.7| |M3_0| |A_2| |U2_0| |.loc.8| |.loc.9| |X_0| |D1_0| |V_0| |P_0| |K1_0| |Q1_0| |F1_0| |E1_0| |C1_0| |B1_0| |W_0| |X1_0| |D2_0| |S1_0| |R1_0| |P1_0| |O1_0| |J1_0| |I2_0| |J_0| |V1_0| |L_0| |M_0| |I1_0| |N_0| |O_0| |Z_0| |Q_0| |A1_0| |Y_0| |U_0| |N1_0| |M1_0| |L1_0| |H1_0| |Z1_0| |M2_0| |K_0| |K2_0| |Q2_0| |F2_0| |E2_0| |C2_0| |B2_0| |W1_0| |A2_0| |Y1_0| |U1_0| |B3_0| |E3_0| |V2_0| |K3_0| |G3_0| |F3_0| |X2_0| |H3_0| |D3_0| |W2_0| |Z2_0| |J3_0| |R2_0| |N2_0| |O2_0| |L2_0| |H2_0| |S2_0| |P2_0| |J2_0| |E_1| |R_0| |T_0| |G1_0| |T1_0| |H_1| |G_1| |F_1| |G2_0| |I_0| |T2_0| |I3_0| |Y2_0| |L3_0| |A3_0| |C3_0|))))
(assert (forall ((|.y.7| (Array Int Int)) (|M3_0| Int) (|A_2| (Array Int Int)) (|U2_0| Int) (|.loc.8| Bool) (|.loc.9| Bool) (|X_0| Int) (|D1_0| Bool) (|V_0| Int) (|P_0| Bool) (|K1_0| Int) (|Q1_0| Bool) (|F1_0| Int) (|E1_0| Int) (|C1_0| (Array Int Int)) (|B1_0| (Array Int Int)) (|W_0| (Array Int Int)) (|X1_0| Int) (|D2_0| Bool) (|S1_0| Int) (|R1_0| Int) (|P1_0| (Array Int Int)) (|O1_0| (Array Int Int)) (|J1_0| (Array Int Int)) (|I2_0| Int) (|J_0| Bool) (|V1_0| Int) (|L_0| Bool) (|M_0| Bool) (|I1_0| Int) (|N_0| Bool) (|O_0| Bool) (|Z_0| Bool) (|Q_0| Bool) (|A1_0| Int) (|Y_0| (Array Int Int)) (|U_0| (Array Int Int)) (|N1_0| Int) (|M1_0| Bool) (|L1_0| (Array Int Int)) (|H1_0| (Array Int Int)) (|Z1_0| Bool) (|M2_0| Bool) (|K_0| Bool) (|K2_0| Int) (|Q2_0| Bool) (|F2_0| Int) (|E2_0| Int) (|C2_0| (Array Int Int)) (|B2_0| (Array Int Int)) (|W1_0| (Array Int Int)) (|A2_0| Int) (|Y1_0| (Array Int Int)) (|U1_0| (Array Int Int)) (|B3_0| Bool) (|E3_0| Bool) (|V2_0| Bool) (|K3_0| Int) (|G3_0| Int) (|F3_0| Bool) (|X2_0| Int) (|H3_0| (Array Int Int)) (|D3_0| (Array Int Int)) (|W2_0| (Array Int Int)) (|Z2_0| Int) (|J3_0| Bool) (|R2_0| Int) (|N2_0| Int) (|O2_0| (Array Int Int)) (|L2_0| (Array Int Int)) (|H2_0| (Array Int Int)) (|S2_0| Int) (|P2_0| (Array Int Int)) (|J2_0| (Array Int Int)) (|E_1| Int) (|R_0| Bool) (|T_0| Int) (|G1_0| Int) (|T1_0| Int) (|H_1| Int) (|G_1| Int) (|F_1| Int) (|G2_0| Int) (|I_0| Int) (|T2_0| Int) (|I3_0| (Array Int Int)) (|Y2_0| (Array Int Int)) (|L3_0| Int) (|A3_0| (Array Int Int)) (|C3_0| Int) (|.loc.14| Bool) (|.loc.15| Bool) (|.y.11| Int) (|.y.12| (Array Int Int)) (|.y.13| Int) (|.y.10| (Array Int Int)) (|.xtv.1| Int) (|.xtv.2| Bool) (|.xtv.3| Int) (|.xtv.4| Bool) (|.xtv.5| Int) (|.xtv.6| Bool) (|.xtv.7| Int) (|.xtv.8| Int) (|.xtv.9| (Array Int Int)) (|.xtv.10| (Array Int Int)) (|.xtv.11| (Array Int Int)) (|.xtv.12| Int) (|.xtv.13| Bool) (|.xtv.14| Int) (|.xtv.15| Int) (|.xtv.16| (Array Int Int)) (|.xtv.17| (Array Int Int)) (|.xtv.18| (Array Int Int)) (|.xtv.19| Int) (|.xtv.20| Bool) (|.xtv.21| Int) (|.xtv.22| Bool) (|.xtv.23| Bool) (|.xtv.24| Int) (|.xtv.25| Bool) (|.xtv.26| Bool) (|.xtv.27| Bool) (|.xtv.28| Bool) (|.xtv.29| Int) (|.xtv.30| (Array Int Int)) (|.xtv.31| (Array Int Int)) (|.xtv.32| Int) (|.xtv.33| Bool) (|.xtv.34| (Array Int Int)) (|.xtv.35| (Array Int Int)) (|.xtv.36| Bool) (|.xtv.37| Bool) (|.xtv.38| Bool) (|.xtv.39| Int) (|.xtv.40| Bool) (|.xtv.41| Int) (|.xtv.42| Int) (|.xtv.43| (Array Int Int)) (|.xtv.44| (Array Int Int)) (|.xtv.45| (Array Int Int)) (|.xtv.46| Int) (|.xtv.47| (Array Int Int)) (|.xtv.48| (Array Int Int)) (|.xtv.49| Bool) (|.xtv.50| Bool) (|.xtv.51| Bool) (|.xtv.52| Int) (|.xtv.53| Int) (|.xtv.54| Bool) (|.xtv.55| Int) (|.xtv.56| (Array Int Int)) (|.xtv.57| (Array Int Int)) (|.xtv.58| (Array Int Int)) (|.xtv.59| Int) (|.xtv.60| Bool) (|.xtv.61| Int) (|.xtv.62| Int) (|.xtv.63| (Array Int Int)) (|.xtv.64| (Array Int Int)) (|.xtv.65| (Array Int Int)) (|.xtv.66| Int) (|.xtv.67| (Array Int Int)) (|.xtv.68| (Array Int Int)) (|.xtv.69| Int) (|.xtv.70| Bool) (|.xtv.71| Int) (|.xtv.72| Int) (|.xtv.73| Int) (|.xtv.74| Int) (|.xtv.75| Int) (|.xtv.76| Int) (|.xtv.77| Int) (|.xtv.78| Int) (|.xtv.79| Int) (|.xtv.80| (Array Int Int)) (|.xtv.81| (Array Int Int)) (|.xtv.82| Int) (|.xtv.83| (Array Int Int)) (|.xtv.84| Int)) (=> (and (state |.y.7| |M3_0| |A_2| |U2_0| |.loc.8| |.loc.9| |X_0| |D1_0| |V_0| |P_0| |K1_0| |Q1_0| |F1_0| |E1_0| |C1_0| |B1_0| |W_0| |X1_0| |D2_0| |S1_0| |R1_0| |P1_0| |O1_0| |J1_0| |I2_0| |J_0| |V1_0| |L_0| |M_0| |I1_0| |N_0| |O_0| |Z_0| |Q_0| |A1_0| |Y_0| |U_0| |N1_0| |M1_0| |L1_0| |H1_0| |Z1_0| |M2_0| |K_0| |K2_0| |Q2_0| |F2_0| |E2_0| |C2_0| |B2_0| |W1_0| |A2_0| |Y1_0| |U1_0| |B3_0| |E3_0| |V2_0| |K3_0| |G3_0| |F3_0| |X2_0| |H3_0| |D3_0| |W2_0| |Z2_0| |J3_0| |R2_0| |N2_0| |O2_0| |L2_0| |H2_0| |S2_0| |P2_0| |J2_0| |E_1| |R_0| |T_0| |G1_0| |T1_0| |H_1| |G_1| |F_1| |G2_0| |I_0| |T2_0| |I3_0| |Y2_0| |L3_0| |A3_0| |C3_0|) (let ((.def_107 (not (<= X2_0 0)))) (let ((.def_108 (not E3_0))) (let ((.def_110 (<= U2_0 0))) (let ((.def_112 (and Z1_0 Q2_0))) (let ((.def_113 (not Q2_0))) (let ((.def_115 (and D2_0 Q2_0))) (let ((.def_117 (not Q_0))) (let ((.def_118 (not N_0))) (let ((.def_120 (not P_0))) (let ((.def_122 (and D2_0 M1_0))) (let ((.def_123 (not D2_0))) (let ((.def_125 (and Q1_0 D2_0))) (let ((.def_127 (and Q1_0 Z_0))) (let ((.def_128 (not Q1_0))) (let ((.def_130 (and D1_0 Q1_0))) (let ((.def_140 (not D1_0))) (let ((.def_146 (and (or (or .def_110 .def_128) (not (<= K1_0 0))) (and (or (or .def_110 .def_120) (not (<= V_0 0))) (or (or .def_110 .def_140) (not (<= X_0 0))))))) (let ((.def_148 (or .def_128 .def_140))) (let ((.def_150 (or .def_148 (= X_0 F1_0)))) (let ((.def_153 (or .def_148 (= F1_0 E1_0)))) (let ((.def_156 (or .def_148 (= C1_0 B1_0)))) (let ((.def_159 (or .def_148 (= C1_0 W_0)))) (let ((.def_164 (or (or .def_110 .def_123) (not (<= X1_0 0))))) (let ((.def_167 (or .def_123 .def_128))) (let ((.def_169 (or .def_167 (= K1_0 S1_0)))) (let ((.def_172 (or .def_167 (= S1_0 R1_0)))) (let ((.def_175 (or .def_167 (= P1_0 O1_0)))) (let ((.def_178 (or .def_167 (= P1_0 J1_0)))) (let ((.def_180 (not J_0))) (let ((.def_184 (or (or .def_110 .def_180) (not (<= I2_0 0))))) (let ((.def_186 (not L_0))) (let ((.def_190 (or (or .def_110 .def_186) (not (<= V1_0 0))))) (let ((.def_194 (or .def_180 (or .def_186 (not M_0))))) (let ((.def_199 (or (or .def_110 .def_118) (not (<= I1_0 0))))) (let ((.def_204 (or .def_186 (or .def_118 (not O_0))))) (let ((.def_206 (not Z_0))) (let ((.def_208 (or .def_120 (or Q_0 .def_206)))) (let ((.def_210 (or .def_128 .def_206))) (let ((.def_212 (or .def_210 (= V_0 A1_0)))) (let ((.def_215 (or .def_210 (= E1_0 A1_0)))) (let ((.def_218 (or .def_210 (= B1_0 Y_0)))) (let ((.def_221 (or .def_210 (= Y_0 U_0)))) (let ((.def_223 (not M1_0))) (let ((.def_224 (or .def_123 .def_223))) (let ((.def_226 (or .def_224 (= I1_0 N1_0)))) (let ((.def_229 (or .def_224 (= R1_0 N1_0)))) (let ((.def_232 (or .def_224 (= O1_0 L1_0)))) (let ((.def_235 (or .def_224 (= L1_0 H1_0)))) (let ((.def_238 (or .def_118 (or O_0 .def_223)))) (let ((.def_240 (not Z1_0))) (let ((.def_242 (or .def_186 (or M_0 .def_240)))) (let ((.def_244 (not M2_0))) (let ((.def_246 (or .def_180 (or K_0 .def_244)))) (let ((.def_251 (or (or .def_110 .def_113) (not (<= K2_0 0))))) (let ((.def_254 (or .def_113 .def_123))) (let ((.def_256 (or .def_254 (= X1_0 F2_0)))) (let ((.def_259 (or .def_254 (= F2_0 E2_0)))) (let ((.def_262 (or .def_254 (= C2_0 B2_0)))) (let ((.def_265 (or .def_254 (= C2_0 W1_0)))) (let ((.def_267 (or .def_113 .def_240))) (let ((.def_269 (or .def_267 (= V1_0 A2_0)))) (let ((.def_272 (or .def_267 (= E2_0 A2_0)))) (let ((.def_275 (or .def_267 (= B2_0 Y1_0)))) (let ((.def_278 (or .def_267 (= Y1_0 U1_0)))) (let ((.def_281 (not B3_0))) (let ((.def_283 (or V2_0 (or .def_108 .def_281)))) (let ((.def_285 (not F3_0))) (let ((.def_286 (or .def_108 .def_285))) (let ((.def_288 (or .def_286 (= K3_0 G3_0)))) (let ((.def_291 (or .def_286 (= G3_0 X2_0)))) (let ((.def_294 (or .def_286 (= H3_0 D3_0)))) (let ((.def_297 (or .def_286 (= D3_0 W2_0)))) (let ((.def_300 (or .def_286 (not V2_0)))) (let ((.def_304 (or .def_180 (or .def_108 (not K_0))))) (let ((.def_306 (not J3_0))) (let ((.def_310 (or (or .def_110 .def_306) (not (<= Z2_0 0))))) (let ((.def_315 (or (or .def_306 (and Q2_0 J3_0)) (and M2_0 J3_0)))) (let ((.def_317 (or .def_244 .def_306))) (let ((.def_319 (or .def_317 (= R2_0 N2_0)))) (let ((.def_322 (or .def_317 (= I2_0 N2_0)))) (let ((.def_325 (or .def_317 (= O2_0 L2_0)))) (let ((.def_328 (or .def_317 (= L2_0 H2_0)))) (let ((.def_330 (or .def_113 .def_306))) (let ((.def_332 (or .def_330 (= R2_0 S2_0)))) (let ((.def_335 (or .def_330 (= K2_0 S2_0)))) (let ((.def_338 (or .def_330 (= O2_0 P2_0)))) (let ((.def_341 (or .def_330 (= P2_0 J2_0)))) (let ((.def_346 (or .def_120 (= Q_0 (= M3_0 1))))) (let ((.def_352 (* 400 M3_0))) (let ((.def_358 (or .def_120 (= (+ .def_352 (+ U2_0 (* (- 1) V_0))) (- 8))))) (let ((.def_365 (or .def_120 (= (+ M3_0 (* (- 1) E_1)) (- 3))))) (let ((.def_367 (not .def_110))) (let ((.def_368 (or .def_120 .def_367))) (let ((.def_371 (or .def_120 (and P_0 R_0)))) (let ((.def_377 (or .def_140 (= (+ .def_352 (+ U2_0 (* (- 1) X_0))) (- 8))))) (let ((.def_382 (or .def_140 (= (+ M3_0 (* (- 1) T_0)) (- 3))))) (let ((.def_384 (or .def_140 .def_367))) (let ((.def_387 (or .def_140 (and D1_0 R_0)))) (let ((.def_395 (or .def_128 (= (+ .def_352 (+ U2_0 (* (- 1) K1_0))) (- 16))))) (let ((.def_402 (or .def_128 (= (+ M3_0 (* (- 1) G1_0)) (- 4))))) (let ((.def_410 (or .def_123 (= (+ .def_352 (+ U2_0 (* (- 1) X1_0))) (- 24))))) (let ((.def_417 (or .def_123 (= (+ M3_0 (* (- 1) T1_0)) (- 5))))) (let ((.def_420 (or .def_281 (and B3_0 E3_0)))) (let ((.def_424 (or .def_180 (= K_0 (= M3_0 4))))) (let ((.def_431 (or .def_180 (= (+ M3_0 (* (- 1) H_1)) (- 6))))) (let ((.def_439 (or .def_180 (= (+ .def_352 (+ U2_0 (* (- 1) I2_0))) (- 32))))) (let ((.def_441 (or .def_180 .def_367))) (let ((.def_444 (or .def_180 (and J_0 L_0)))) (let ((.def_448 (or .def_186 (= M_0 (= M3_0 3))))) (let ((.def_453 (or .def_186 (= (+ M3_0 (* (- 1) G_1)) (- 5))))) (let ((.def_459 (or .def_186 (= (+ .def_352 (+ U2_0 (* (- 1) V1_0))) (- 24))))) (let ((.def_461 (or .def_186 .def_367))) (let ((.def_464 (or .def_186 (and L_0 N_0)))) (let ((.def_469 (or .def_118 (= O_0 (= M3_0 2))))) (let ((.def_474 (or .def_118 (= (+ M3_0 (* (- 1) F_1)) (- 4))))) (let ((.def_480 (or .def_118 (= (+ .def_352 (+ U2_0 (* (- 1) I1_0))) (- 16))))) (let ((.def_482 (or .def_118 .def_367))) (let ((.def_485 (or .def_118 (and P_0 N_0)))) (let ((.def_488 (or .def_206 (and P_0 Z_0)))) (let ((.def_491 (or .def_223 (and N_0 M1_0)))) (let ((.def_494 (or .def_240 (and L_0 Z1_0)))) (let ((.def_497 (or .def_244 (and J_0 M2_0)))) (let ((.def_503 (or .def_113 (= (+ .def_352 (+ U2_0 (* (- 1) K2_0))) (- 32))))) (let ((.def_508 (or .def_113 (= (+ M3_0 (* (- 1) G2_0)) (- 6))))) (let ((.def_512 (or .def_108 (= V2_0 (= M3_0 5))))) (let ((.def_519 (or .def_108 (= (+ M3_0 (* (- 1) I_0)) (- 7))))) (let ((.def_527 (or .def_108 (= (+ .def_352 (+ U2_0 (* (- 1) X2_0))) (- 40))))) (let ((.def_529 (or .def_108 .def_367))) (let ((.def_532 (or .def_108 (and J_0 E3_0)))) (let ((.def_534 (or E3_0 .def_285))) (let ((.def_539 (or .def_306 (= (+ M3_0 (* (- 1) T2_0)) (- 7))))) (let ((.def_545 (or .def_306 (= (+ .def_352 (+ U2_0 (* (- 1) Z2_0))) (- 40))))) (let ((.def_548 (<= 50 M3_0))) (let ((.def_551 (not (<= 6 M3_0)))) (let ((.def_557 (or .def_110 (not (<= (+ .def_352 U2_0) 0))))) (let ((.def_559 (not R_0))) (let ((.def_560 (= M3_0 0))) (let ((.def_562 (or .def_559 (or .def_140 .def_560)))) (let ((.def_566 (or .def_120 (or .def_559 (not .def_560))))) (let ((.def_569 (or .def_306 (= I3_0 Y2_0)))) (let ((.def_572 (or .def_306 (= H3_0 I3_0)))) (let ((.def_575 (or .def_306 (= Z2_0 L3_0)))) (let ((.def_578 (or .def_306 (= K3_0 L3_0)))) (let ((.def_581 (or .def_281 (= H3_0 A3_0)))) (let ((.def_584 (or .def_281 (= W2_0 A3_0)))) (let ((.def_587 (or .def_281 (= K3_0 C3_0)))) (let ((.def_590 (or .def_281 (= X2_0 C3_0)))) (let ((.def_594 (or (and E3_0 F3_0) (or B3_0 J3_0)))) (let ((.def_604 (not .loc.15))) (and (not .loc.9) (or (or (and (not .loc.14) (and (and .loc.8 (and (and (and (and (and (and (and (and (and (and (and (and (and (and (and (and (and (and (and (and (and (and (and (and (and (and (and (and (and (and (and (and (and (and (and (and (and (and (and (and (and (and (and (and (and (and (and (and (and (and (and (and (and (and (and (and (and (and (and (and (and (and (and (and (and (and (and (and (and (and (and (and (and (and (and (or (or .def_107 .def_108) .def_110) (and (and (and (and (and (and (and (and (and (or (or .def_112 .def_113) .def_115) (and (and (and (and (and (and (and (and (and (and (and (and (and (and (and (or (or .def_117 .def_118) .def_120) (and (and (and (and (and (and (and (and (and (or (or .def_122 .def_123) .def_125) (and (and (and (and (and (and (or (or .def_127 .def_128) .def_130) .def_146) .def_150) .def_153) .def_156) .def_159) .def_164)) .def_169) .def_172) .def_175) .def_178) .def_184) .def_190) .def_194) .def_199)) .def_204) .def_208) .def_212) .def_215) .def_218) .def_221) .def_226) .def_229) .def_232) .def_235) .def_238) .def_242) .def_246) .def_251)) .def_256) .def_259) .def_262) .def_265) .def_269) .def_272) .def_275) .def_278)) .def_283) .def_288) .def_291) .def_294) .def_297) .def_300) .def_304) .def_310) .def_315) .def_319) .def_322) .def_325) .def_328) .def_332) .def_335) .def_338) .def_341) .def_346) .def_358) .def_365) .def_368) .def_371) .def_377) .def_382) .def_384) .def_387) .def_395) .def_402) .def_410) .def_417) .def_420) .def_424) .def_431) .def_439) .def_441) .def_444) .def_448) .def_453) .def_459) .def_461) .def_464) .def_469) .def_474) .def_480) .def_482) .def_485) .def_488) .def_491) .def_494) .def_497) .def_503) .def_508) .def_512) .def_519) .def_527) .def_529) .def_532) .def_534) .def_539) .def_545) .def_548) .def_551) .def_557) .def_562) .def_566) .def_569) .def_572) .def_575) .def_578) .def_581) .def_584) .def_587) .def_590) .def_594)) .loc.15)) (and (= .y.11 0) (and (= .y.7 .y.12) (and (not .loc.8) (and .loc.14 .def_604))))) (and (= U2_0 .y.13) (and (or .def_118 (or .def_117 .def_120)) (and (or .def_127 (or .def_128 .def_130)) (and (or .def_122 (or .def_123 .def_125)) (and (or .def_112 (or .def_113 .def_115)) (and (or .def_107 (or .def_108 .def_110)) (and (= (+ M3_0 (* (- 1) .y.11)) (- 1)) (and .def_604 (and .loc.14 (and .loc.8 (and .def_594 (and .def_590 (and .def_587 (and .def_584 (and .def_581 (and .def_578 (and .def_575 (and .def_572 (and .def_569 (and .def_566 (and .def_562 (and .def_557 (and .def_551 (and (not .def_548) (and .def_545 (and .def_539 (and .def_534 (and .def_532 (and .def_529 (and .def_527 (and .def_519 (and .def_512 (and .def_508 (and .def_503 (and .def_497 (and .def_494 (and .def_491 (and .def_488 (and .def_485 (and .def_482 (and .def_480 (and .def_474 (and .def_469 (and .def_464 (and .def_461 (and .def_459 (and .def_453 (and .def_448 (and .def_444 (and .def_441 (and .def_439 (and .def_431 (and .def_424 (and .def_420 (and .def_417 (and .def_410 (and .def_402 (and .def_395 (and .def_387 (and .def_384 (and .def_382 (and .def_377 (and .def_371 (and .def_368 (and .def_365 (and .def_358 (and .def_346 (and .def_341 (and .def_338 (and .def_335 (and .def_332 (and .def_328 (and .def_325 (and .def_322 (and .def_319 (and .def_315 (and .def_310 (and .def_304 (and .def_300 (and .def_297 (and .def_294 (and .def_291 (and .def_288 (and .def_283 (and .def_278 (and .def_275 (and .def_272 (and .def_269 (and .def_265 (and .def_262 (and .def_259 (and .def_256 (and .def_251 (and .def_246 (and .def_242 (and .def_238 (and .def_235 (and .def_232 (and .def_229 (and .def_226 (and .def_221 (and .def_218 (and .def_215 (and .def_212 (and .def_208 (and .def_204 (and .def_199 (and .def_194 (and .def_190 (and .def_184 (and .def_178 (and .def_175 (and .def_172 (and .def_169 (and .def_164 (and .def_159 (and .def_156 (and .def_153 (and .def_146 .def_150))))))))))))))))))))))))))))))))))))))))))))))))))))))))))))))))))))))))))))))))))))))))))))))))))))))))))))))))))))))))))))))))))))))))))))))))))))))))))))))))))))))))))))))))))))))))))))))))))))))))))))))))))))))))))))))))))))))))))))))))))))))))))))))))))))))))))))))) (state |.y.10| |.y.11| |.y.12| |.y.13| |.loc.14| |.loc.15| |.xtv.1| |.xtv.2| |.xtv.3| |.xtv.4| |.xtv.5| |.xtv.6| |.xtv.7| |.xtv.8| |.xtv.9| |.xtv.10| |.xtv.11| |.xtv.12| |.xtv.13| |.xtv.14| |.xtv.15| |.xtv.16| |.xtv.17| |.xtv.18| |.xtv.19| |.xtv.20| |.xtv.21| |.xtv.22| |.xtv.23| |.xtv.24| |.xtv.25| |.xtv.26| |.xtv.27| |.xtv.28| |.xtv.29| |.xtv.30| |.xtv.31| |.xtv.32| |.xtv.33| |.xtv.34| |.xtv.35| |.xtv.36| |.xtv.37| |.xtv.38| |.xtv.39| |.xtv.40| |.xtv.41| |.xtv.42| |.xtv.43| |.xtv.44| |.xtv.45| |.xtv.46| |.xtv.47| |.xtv.48| |.xtv.49| |.xtv.50| |.xtv.51| |.xtv.52| |.xtv.53| |.xtv.54| |.xtv.55| |.xtv.56| |.xtv.57| |.xtv.58| |.xtv.59| |.xtv.60| |.xtv.61| |.xtv.62| |.xtv.63| |.xtv.64| |.xtv.65| |.xtv.66| |.xtv.67| |.xtv.68| |.xtv.69| |.xtv.70| |.xtv.71| |.xtv.72| |.xtv.73| |.xtv.74| |.xtv.75| |.xtv.76| |.xtv.77| |.xtv.78| |.xtv.79| |.xtv.80| |.xtv.81| |.xtv.82| |.xtv.83| |.xtv.84|))))
(assert (forall ((|.y.7| (Array Int Int)) (|M3_0| Int) (|A_2| (Array Int Int)) (|U2_0| Int) (|.loc.8| Bool) (|.loc.9| Bool) (|X_0| Int) (|D1_0| Bool) (|V_0| Int) (|P_0| Bool) (|K1_0| Int) (|Q1_0| Bool) (|F1_0| Int) (|E1_0| Int) (|C1_0| (Array Int Int)) (|B1_0| (Array Int Int)) (|W_0| (Array Int Int)) (|X1_0| Int) (|D2_0| Bool) (|S1_0| Int) (|R1_0| Int) (|P1_0| (Array Int Int)) (|O1_0| (Array Int Int)) (|J1_0| (Array Int Int)) (|I2_0| Int) (|J_0| Bool) (|V1_0| Int) (|L_0| Bool) (|M_0| Bool) (|I1_0| Int) (|N_0| Bool) (|O_0| Bool) (|Z_0| Bool) (|Q_0| Bool) (|A1_0| Int) (|Y_0| (Array Int Int)) (|U_0| (Array Int Int)) (|N1_0| Int) (|M1_0| Bool) (|L1_0| (Array Int Int)) (|H1_0| (Array Int Int)) (|Z1_0| Bool) (|M2_0| Bool) (|K_0| Bool) (|K2_0| Int) (|Q2_0| Bool) (|F2_0| Int) (|E2_0| Int) (|C2_0| (Array Int Int)) (|B2_0| (Array Int Int)) (|W1_0| (Array Int Int)) (|A2_0| Int) (|Y1_0| (Array Int Int)) (|U1_0| (Array Int Int)) (|B3_0| Bool) (|E3_0| Bool) (|V2_0| Bool) (|K3_0| Int) (|G3_0| Int) (|F3_0| Bool) (|X2_0| Int) (|H3_0| (Array Int Int)) (|D3_0| (Array Int Int)) (|W2_0| (Array Int Int)) (|Z2_0| Int) (|J3_0| Bool) (|R2_0| Int) (|N2_0| Int) (|O2_0| (Array Int Int)) (|L2_0| (Array Int Int)) (|H2_0| (Array Int Int)) (|S2_0| Int) (|P2_0| (Array Int Int)) (|J2_0| (Array Int Int)) (|E_1| Int) (|R_0| Bool) (|T_0| Int) (|G1_0| Int) (|T1_0| Int) (|H_1| Int) (|G_1| Int) (|F_1| Int) (|G2_0| Int) (|I_0| Int) (|T2_0| Int) (|I3_0| (Array Int Int)) (|Y2_0| (Array Int Int)) (|L3_0| Int) (|A3_0| (Array Int Int)) (|C3_0| Int) (|.loc.14| Bool) (|.loc.15| Bool) (|.y.11| Int) (|.y.12| (Array Int Int)) (|.y.13| Int) (|.y.10| (Array Int Int)) (|.xtv.1| Int) (|.xtv.2| Bool) (|.xtv.3| Int) (|.xtv.4| Bool) (|.xtv.5| Int) (|.xtv.6| Bool) (|.xtv.7| Int) (|.xtv.8| Int) (|.xtv.9| (Array Int Int)) (|.xtv.10| (Array Int Int)) (|.xtv.11| (Array Int Int)) (|.xtv.12| Int) (|.xtv.13| Bool) (|.xtv.14| Int) (|.xtv.15| Int) (|.xtv.16| (Array Int Int)) (|.xtv.17| (Array Int Int)) (|.xtv.18| (Array Int Int)) (|.xtv.19| Int) (|.xtv.20| Bool) (|.xtv.21| Int) (|.xtv.22| Bool) (|.xtv.23| Bool) (|.xtv.24| Int) (|.xtv.25| Bool) (|.xtv.26| Bool) (|.xtv.27| Bool) (|.xtv.28| Bool) (|.xtv.29| Int) (|.xtv.30| (Array Int Int)) (|.xtv.31| (Array Int Int)) (|.xtv.32| Int) (|.xtv.33| Bool) (|.xtv.34| (Array Int Int)) (|.xtv.35| (Array Int Int)) (|.xtv.36| Bool) (|.xtv.37| Bool) (|.xtv.38| Bool) (|.xtv.39| Int) (|.xtv.40| Bool) (|.xtv.41| Int) (|.xtv.42| Int) (|.xtv.43| (Array Int Int)) (|.xtv.44| (Array Int Int)) (|.xtv.45| (Array Int Int)) (|.xtv.46| Int) (|.xtv.47| (Array Int Int)) (|.xtv.48| (Array Int Int)) (|.xtv.49| Bool) (|.xtv.50| Bool) (|.xtv.51| Bool) (|.xtv.52| Int) (|.xtv.53| Int) (|.xtv.54| Bool) (|.xtv.55| Int) (|.xtv.56| (Array Int Int)) (|.xtv.57| (Array Int Int)) (|.xtv.58| (Array Int Int)) (|.xtv.59| Int) (|.xtv.60| Bool) (|.xtv.61| Int) (|.xtv.62| Int) (|.xtv.63| (Array Int Int)) (|.xtv.64| (Array Int Int)) (|.xtv.65| (Array Int Int)) (|.xtv.66| Int) (|.xtv.67| (Array Int Int)) (|.xtv.68| (Array Int Int)) (|.xtv.69| Int) (|.xtv.70| Bool) (|.xtv.71| Int) (|.xtv.72| Int) (|.xtv.73| Int) (|.xtv.74| Int) (|.xtv.75| Int) (|.xtv.76| Int) (|.xtv.77| Int) (|.xtv.78| Int) (|.xtv.79| Int) (|.xtv.80| (Array Int Int)) (|.xtv.81| (Array Int Int)) (|.xtv.82| Int) (|.xtv.83| (Array Int Int)) (|.xtv.84| Int)) (=> (state |.y.7| |M3_0| |A_2| |U2_0| |.loc.8| |.loc.9| |X_0| |D1_0| |V_0| |P_0| |K1_0| |Q1_0| |F1_0| |E1_0| |C1_0| |B1_0| |W_0| |X1_0| |D2_0| |S1_0| |R1_0| |P1_0| |O1_0| |J1_0| |I2_0| |J_0| |V1_0| |L_0| |M_0| |I1_0| |N_0| |O_0| |Z_0| |Q_0| |A1_0| |Y_0| |U_0| |N1_0| |M1_0| |L1_0| |H1_0| |Z1_0| |M2_0| |K_0| |K2_0| |Q2_0| |F2_0| |E2_0| |C2_0| |B2_0| |W1_0| |A2_0| |Y1_0| |U1_0| |B3_0| |E3_0| |V2_0| |K3_0| |G3_0| |F3_0| |X2_0| |H3_0| |D3_0| |W2_0| |Z2_0| |J3_0| |R2_0| |N2_0| |O2_0| |L2_0| |H2_0| |S2_0| |P2_0| |J2_0| |E_1| |R_0| |T_0| |G1_0| |T1_0| |H_1| |G_1| |F_1| |G2_0| |I_0| |T2_0| |I3_0| |Y2_0| |L3_0| |A3_0| |C3_0|) (not (and .loc.9 (not .loc.8))))))
(check-sat)
